NAME           C:\Bruker\Hvattum\knapsack\Problems\class4\100-10-15.mps
ROWS
 N  OBJ
 L  CONSTR1
 L  CONSTR2
 L  CONSTR3
 L  CONSTR4
 L  CONSTR5
 L  CONSTR6
 L  CONSTR7
 L  CONSTR8
 L  CONSTR9
 L  CONSTR10
COLUMNS
    INT0001   'MARKER'  'INTORG'
    X1        OBJ       460
    X1        CONSTR1   928
    X1        CONSTR2   862
    X1        CONSTR3   107
    X1        CONSTR4   796
    X1        CONSTR5   204
    X1        CONSTR6   183
    X1        CONSTR7   517
    X1        CONSTR8   78
    X1        CONSTR9   209
    X1        CONSTR10  508
    X2        OBJ       630
    X2        CONSTR1   278
    X2        CONSTR2   618
    X2        CONSTR3   302
    X2        CONSTR4   448
    X2        CONSTR5   259
    X2        CONSTR6   284
    X2        CONSTR7   190
    X2        CONSTR8   630
    X2        CONSTR9   28
    X2        CONSTR10  415
    X3        OBJ       640
    X3        CONSTR1   856
    X3        CONSTR2   161
    X3        CONSTR3   410
    X3        CONSTR4   623
    X3        CONSTR5   673
    X3        CONSTR6   303
    X3        CONSTR7   948
    X3        CONSTR8   839
    X3        CONSTR9   678
    X3        CONSTR10  722
    X4        OBJ       700
    X4        CONSTR1   450
    X4        CONSTR2   108
    X4        CONSTR3   832
    X4        CONSTR4   974
    X4        CONSTR5   746
    X4        CONSTR6   648
    X4        CONSTR7   245
    X4        CONSTR8   274
    X4        CONSTR9   808
    X4        CONSTR10  491
    X5        OBJ       685
    X5        CONSTR1   881
    X5        CONSTR2   432
    X5        CONSTR3   351
    X5        CONSTR4   752
    X5        CONSTR5   699
    X5        CONSTR6   454
    X5        CONSTR7   722
    X5        CONSTR8   760
    X5        CONSTR9   719
    X5        CONSTR10  374
    X6        OBJ       867
    X6        CONSTR1   507
    X6        CONSTR2   390
    X6        CONSTR3   654
    X6        CONSTR4   555
    X6        CONSTR5   337
    X6        CONSTR6   671
    X6        CONSTR7   618
    X6        CONSTR8   928
    X6        CONSTR9   668
    X6        CONSTR10  438
    X7        OBJ       694
    X7        CONSTR1   868
    X7        CONSTR2   442
    X7        CONSTR3   60
    X7        CONSTR4   535
    X7        CONSTR5   386
    X7        CONSTR6   221
    X7        CONSTR7   757
    X7        CONSTR8   53
    X7        CONSTR9   285
    X7        CONSTR10  191
    X8        OBJ       629
    X8        CONSTR1   117
    X8        CONSTR2   339
    X8        CONSTR3   344
    X8        CONSTR4   726
    X8        CONSTR5   190
    X8        CONSTR6   895
    X8        CONSTR7   555
    X8        CONSTR8   957
    X8        CONSTR9   108
    X8        CONSTR10  37
    X9        OBJ       623
    X9        CONSTR1   164
    X9        CONSTR2   108
    X9        CONSTR3   727
    X9        CONSTR4   645
    X9        CONSTR5   466
    X9        CONSTR6   874
    X9        CONSTR7   487
    X9        CONSTR8   660
    X9        CONSTR9   415
    X9        CONSTR10  865
    X10       OBJ       723
    X10       CONSTR1   467
    X10       CONSTR2   391
    X10       CONSTR3   77
    X10       CONSTR4   678
    X10       CONSTR5   832
    X10       CONSTR6   493
    X10       CONSTR7   666
    X10       CONSTR8   359
    X10       CONSTR9   9
    X10       CONSTR10  618
    X11       OBJ       785
    X11       CONSTR1   503
    X11       CONSTR2   641
    X11       CONSTR3   161
    X11       CONSTR4   500
    X11       CONSTR5   871
    X11       CONSTR6   502
    X11       CONSTR7   210
    X11       CONSTR8   457
    X11       CONSTR9   220
    X11       CONSTR10  483
    X12       OBJ       732
    X12       CONSTR1   259
    X12       CONSTR2   342
    X12       CONSTR3   221
    X12       CONSTR4   624
    X12       CONSTR5   641
    X12       CONSTR6   829
    X12       CONSTR7   833
    X12       CONSTR8   692
    X12       CONSTR9   136
    X12       CONSTR10  455
    X13       OBJ       1032
    X13       CONSTR1   785
    X13       CONSTR2   251
    X13       CONSTR3   878
    X13       CONSTR4   711
    X13       CONSTR5   566
    X13       CONSTR6   325
    X13       CONSTR7   811
    X13       CONSTR8   702
    X13       CONSTR9   484
    X13       CONSTR10  878
    X14       OBJ       729
    X14       CONSTR1   499
    X14       CONSTR2   201
    X14       CONSTR3   516
    X14       CONSTR4   401
    X14       CONSTR5   263
    X14       CONSTR6   825
    X14       CONSTR7   406
    X14       CONSTR8   249
    X14       CONSTR9   512
    X14       CONSTR10  270
    X15       OBJ       504
    X15       CONSTR1   751
    X15       CONSTR2   639
    X15       CONSTR3   156
    X15       CONSTR4   786
    X15       CONSTR5   220
    X15       CONSTR6   111
    X15       CONSTR7   432
    X15       CONSTR8   214
    X15       CONSTR9   719
    X15       CONSTR10  58
    X16       OBJ       1019
    X16       CONSTR1   736
    X16       CONSTR2   471
    X16       CONSTR3   963
    X16       CONSTR4   726
    X16       CONSTR5   399
    X16       CONSTR6   717
    X16       CONSTR7   643
    X16       CONSTR8   105
    X16       CONSTR9   463
    X16       CONSTR10  753
    X17       OBJ       755
    X17       CONSTR1   514
    X17       CONSTR2   174
    X17       CONSTR3   885
    X17       CONSTR4   984
    X17       CONSTR5   819
    X17       CONSTR6   342
    X17       CONSTR7   667
    X17       CONSTR8   886
    X17       CONSTR9   697
    X17       CONSTR10  492
    X18       OBJ       617
    X18       CONSTR1   471
    X18       CONSTR2   771
    X18       CONSTR3   970
    X18       CONSTR4   488
    X18       CONSTR5   694
    X18       CONSTR6   514
    X18       CONSTR7   340
    X18       CONSTR8   129
    X18       CONSTR9   297
    X18       CONSTR10  815
    X19       OBJ       1126
    X19       CONSTR1   935
    X19       CONSTR2   826
    X19       CONSTR3   431
    X19       CONSTR4   854
    X19       CONSTR5   828
    X19       CONSTR6   130
    X19       CONSTR7   893
    X19       CONSTR8   299
    X19       CONSTR9   536
    X19       CONSTR10  682
    X20       OBJ       338
    X20       CONSTR1   85
    X20       CONSTR2   817
    X20       CONSTR3   59
    X20       CONSTR4   162
    X20       CONSTR5   400
    X20       CONSTR6   488
    X20       CONSTR7   887
    X20       CONSTR8   124
    X20       CONSTR9   136
    X20       CONSTR10  132
    X21       OBJ       646
    X21       CONSTR1   765
    X21       CONSTR2   758
    X21       CONSTR3   302
    X21       CONSTR4   817
    X21       CONSTR5   643
    X21       CONSTR6   45
    X21       CONSTR7   490
    X21       CONSTR8   704
    X21       CONSTR9   310
    X21       CONSTR10  625
    X22       OBJ       670
    X22       CONSTR1   987
    X22       CONSTR2   603
    X22       CONSTR3   280
    X22       CONSTR4   890
    X22       CONSTR5   707
    X22       CONSTR6   172
    X22       CONSTR7   981
    X22       CONSTR8   438
    X22       CONSTR9   248
    X22       CONSTR10  745
    X23       OBJ       941
    X23       CONSTR1   550
    X23       CONSTR2   452
    X23       CONSTR3   612
    X23       CONSTR4   847
    X23       CONSTR5   733
    X23       CONSTR6   394
    X23       CONSTR7   191
    X23       CONSTR8   857
    X23       CONSTR9   755
    X23       CONSTR10  411
    X24       OBJ       850
    X24       CONSTR1   386
    X24       CONSTR2   66
    X24       CONSTR3   605
    X24       CONSTR4   347
    X24       CONSTR5   347
    X24       CONSTR6   330
    X24       CONSTR7   997
    X24       CONSTR8   721
    X24       CONSTR9   488
    X24       CONSTR10  220
    X25       OBJ       386
    X25       CONSTR1   936
    X25       CONSTR2   313
    X25       CONSTR3   470
    X25       CONSTR4   26
    X25       CONSTR5   877
    X25       CONSTR6   166
    X25       CONSTR7   170
    X25       CONSTR8   86
    X25       CONSTR9   37
    X25       CONSTR10  49
    X26       OBJ       810
    X26       CONSTR1   764
    X26       CONSTR2   230
    X26       CONSTR3   35
    X26       CONSTR4   257
    X26       CONSTR5   727
    X26       CONSTR6   292
    X26       CONSTR7   221
    X26       CONSTR8   633
    X26       CONSTR9   237
    X26       CONSTR10  911
    X27       OBJ       557
    X27       CONSTR1   611
    X27       CONSTR2   430
    X27       CONSTR3   233
    X27       CONSTR4   691
    X27       CONSTR5   428
    X27       CONSTR6   395
    X27       CONSTR7   189
    X27       CONSTR8   442
    X27       CONSTR9   85
    X27       CONSTR10  522
    X28       OBJ       568
    X28       CONSTR1   147
    X28       CONSTR2   881
    X28       CONSTR3   301
    X28       CONSTR4   165
    X28       CONSTR5   563
    X28       CONSTR6   234
    X28       CONSTR7   63
    X28       CONSTR8   391
    X28       CONSTR9   939
    X28       CONSTR10  405
    X29       OBJ       697
    X29       CONSTR1   104
    X29       CONSTR2   539
    X29       CONSTR3   493
    X29       CONSTR4   811
    X29       CONSTR5   707
    X29       CONSTR6   672
    X29       CONSTR7   213
    X29       CONSTR8   195
    X29       CONSTR9   297
    X29       CONSTR10  847
    X30       OBJ       771
    X30       CONSTR1   788
    X30       CONSTR2   850
    X30       CONSTR3   756
    X30       CONSTR4   462
    X30       CONSTR5   142
    X30       CONSTR6   573
    X30       CONSTR7   579
    X30       CONSTR8   825
    X30       CONSTR9   723
    X30       CONSTR10  933
    X31       OBJ       802
    X31       CONSTR1   45
    X31       CONSTR2   235
    X31       CONSTR3   715
    X31       CONSTR4   658
    X31       CONSTR5   944
    X31       CONSTR6   420
    X31       CONSTR7   599
    X31       CONSTR8   321
    X31       CONSTR9   75
    X31       CONSTR10  978
    X32       OBJ       1042
    X32       CONSTR1   661
    X32       CONSTR2   678
    X32       CONSTR3   781
    X32       CONSTR4   922
    X32       CONSTR5   812
    X32       CONSTR6   992
    X32       CONSTR7   528
    X32       CONSTR8   500
    X32       CONSTR9   762
    X32       CONSTR10  54
    X33       OBJ       584
    X33       CONSTR1   552
    X33       CONSTR2   34
    X33       CONSTR3   494
    X33       CONSTR4   129
    X33       CONSTR5   322
    X33       CONSTR6   539
    X33       CONSTR7   714
    X33       CONSTR8   870
    X33       CONSTR9   307
    X33       CONSTR10  454
    X34       OBJ       681
    X34       CONSTR1   991
    X34       CONSTR2   812
    X34       CONSTR3   233
    X34       CONSTR4   90
    X34       CONSTR5   360
    X34       CONSTR6   710
    X34       CONSTR7   652
    X34       CONSTR8   230
    X34       CONSTR9   195
    X34       CONSTR10  733
    X35       OBJ       669
    X35       CONSTR1   212
    X35       CONSTR2   13
    X35       CONSTR3   94
    X35       CONSTR4   597
    X35       CONSTR5   247
    X35       CONSTR6   882
    X35       CONSTR7   917
    X35       CONSTR8   112
    X35       CONSTR9   109
    X35       CONSTR10  114
    X36       OBJ       530
    X36       CONSTR1   407
    X36       CONSTR2   627
    X36       CONSTR3   717
    X36       CONSTR4   834
    X36       CONSTR5   244
    X36       CONSTR6   19
    X36       CONSTR7   174
    X36       CONSTR8   345
    X36       CONSTR9   324
    X36       CONSTR10  8
    X37       OBJ       526
    X37       CONSTR1   794
    X37       CONSTR2   487
    X37       CONSTR3   135
    X37       CONSTR4   839
    X37       CONSTR5   135
    X37       CONSTR6   355
    X37       CONSTR7   480
    X37       CONSTR8   296
    X37       CONSTR9   645
    X37       CONSTR10  198
    X38       OBJ       573
    X38       CONSTR1   353
    X38       CONSTR2   761
    X38       CONSTR3   786
    X38       CONSTR4   77
    X38       CONSTR5   666
    X38       CONSTR6   568
    X38       CONSTR7   944
    X38       CONSTR8   103
    X38       CONSTR9   630
    X38       CONSTR10  771
    X39       OBJ       594
    X39       CONSTR1   57
    X39       CONSTR2   624
    X39       CONSTR3   378
    X39       CONSTR4   549
    X39       CONSTR5   675
    X39       CONSTR6   715
    X39       CONSTR7   954
    X39       CONSTR8   726
    X39       CONSTR9   79
    X39       CONSTR10  557
    X40       OBJ       872
    X40       CONSTR1   961
    X40       CONSTR2   239
    X40       CONSTR3   765
    X40       CONSTR4   67
    X40       CONSTR5   273
    X40       CONSTR6   978
    X40       CONSTR7   383
    X40       CONSTR8   329
    X40       CONSTR9   933
    X40       CONSTR10  77
    X41       OBJ       536
    X41       CONSTR1   350
    X41       CONSTR2   350
    X41       CONSTR3   16
    X41       CONSTR4   994
    X41       CONSTR5   646
    X41       CONSTR6   295
    X41       CONSTR7   884
    X41       CONSTR8   398
    X41       CONSTR9   827
    X41       CONSTR10  351
    X42       OBJ       732
    X42       CONSTR1   4
    X42       CONSTR2   661
    X42       CONSTR3   155
    X42       CONSTR4   407
    X42       CONSTR5   52
    X42       CONSTR6   392
    X42       CONSTR7   529
    X42       CONSTR8   276
    X42       CONSTR9   293
    X42       CONSTR10  641
    X43       OBJ       537
    X43       CONSTR1   782
    X43       CONSTR2   807
    X43       CONSTR3   550
    X43       CONSTR4   395
    X43       CONSTR5   274
    X43       CONSTR6   183
    X43       CONSTR7   231
    X43       CONSTR8   222
    X43       CONSTR9   227
    X43       CONSTR10  212
    X44       OBJ       520
    X44       CONSTR1   517
    X44       CONSTR2   124
    X44       CONSTR3   454
    X44       CONSTR4   594
    X44       CONSTR5   671
    X44       CONSTR6   238
    X44       CONSTR7   869
    X44       CONSTR8   568
    X44       CONSTR9   135
    X44       CONSTR10  137
    X45       OBJ       770
    X45       CONSTR1   622
    X45       CONSTR2   949
    X45       CONSTR3   796
    X45       CONSTR4   186
    X45       CONSTR5   938
    X45       CONSTR6   519
    X45       CONSTR7   322
    X45       CONSTR8   597
    X45       CONSTR9   108
    X45       CONSTR10  511
    X46       OBJ       469
    X46       CONSTR1   394
    X46       CONSTR2   196
    X46       CONSTR3   445
    X46       CONSTR4   519
    X46       CONSTR5   192
    X46       CONSTR6   281
    X46       CONSTR7   431
    X46       CONSTR8   219
    X46       CONSTR9   729
    X46       CONSTR10  178
    X47       OBJ       756
    X47       CONSTR1   205
    X47       CONSTR2   890
    X47       CONSTR3   953
    X47       CONSTR4   963
    X47       CONSTR5   881
    X47       CONSTR6   63
    X47       CONSTR7   671
    X47       CONSTR8   278
    X47       CONSTR9   16
    X47       CONSTR10  675
    X48       OBJ       448
    X48       CONSTR1   96
    X48       CONSTR2   69
    X48       CONSTR3   876
    X48       CONSTR4   685
    X48       CONSTR5   558
    X48       CONSTR6   489
    X48       CONSTR7   498
    X48       CONSTR8   261
    X48       CONSTR9   82
    X48       CONSTR10  186
    X49       OBJ       972
    X49       CONSTR1   805
    X49       CONSTR2   444
    X49       CONSTR3   416
    X49       CONSTR4   185
    X49       CONSTR5   955
    X49       CONSTR6   945
    X49       CONSTR7   149
    X49       CONSTR8   449
    X49       CONSTR9   891
    X49       CONSTR10  788
    X50       OBJ       478
    X50       CONSTR1   198
    X50       CONSTR2   772
    X50       CONSTR3   19
    X50       CONSTR4   439
    X50       CONSTR5   264
    X50       CONSTR6   335
    X50       CONSTR7   189
    X50       CONSTR8   268
    X50       CONSTR9   49
    X50       CONSTR10  735
    X51       OBJ       852
    X51       CONSTR1   321
    X51       CONSTR2   757
    X51       CONSTR3   332
    X51       CONSTR4   927
    X51       CONSTR5   382
    X51       CONSTR6   746
    X51       CONSTR7   446
    X51       CONSTR8   116
    X51       CONSTR9   488
    X51       CONSTR10  342
    X52       OBJ       765
    X52       CONSTR1   623
    X52       CONSTR2   74
    X52       CONSTR3   501
    X52       CONSTR4   654
    X52       CONSTR5   476
    X52       CONSTR6   362
    X52       CONSTR7   130
    X52       CONSTR8   520
    X52       CONSTR9   540
    X52       CONSTR10  262
    X53       OBJ       661
    X53       CONSTR1   995
    X53       CONSTR2   80
    X53       CONSTR3   806
    X53       CONSTR4   14
    X53       CONSTR5   483
    X53       CONSTR6   195
    X53       CONSTR7   151
    X53       CONSTR8   307
    X53       CONSTR9   294
    X53       CONSTR10  8
    X54       OBJ       788
    X54       CONSTR1   235
    X54       CONSTR2   534
    X54       CONSTR3   316
    X54       CONSTR4   620
    X54       CONSTR5   852
    X54       CONSTR6   475
    X54       CONSTR7   305
    X54       CONSTR8   91
    X54       CONSTR9   903
    X54       CONSTR10  747
    X55       OBJ       653
    X55       CONSTR1   247
    X55       CONSTR2   47
    X55       CONSTR3   393
    X55       CONSTR4   692
    X55       CONSTR5   799
    X55       CONSTR6   883
    X55       CONSTR7   184
    X55       CONSTR8   696
    X55       CONSTR9   484
    X55       CONSTR10  617
    X56       OBJ       601
    X56       CONSTR1   801
    X56       CONSTR2   502
    X56       CONSTR3   662
    X56       CONSTR4   327
    X56       CONSTR5   392
    X56       CONSTR6   387
    X56       CONSTR7   354
    X56       CONSTR8   226
    X56       CONSTR9   625
    X56       CONSTR10  504
    X57       OBJ       891
    X57       CONSTR1   994
    X57       CONSTR2   719
    X57       CONSTR3   593
    X57       CONSTR4   375
    X57       CONSTR5   750
    X57       CONSTR6   910
    X57       CONSTR7   7
    X57       CONSTR8   798
    X57       CONSTR9   443
    X57       CONSTR10  23
    X58       OBJ       1008
    X58       CONSTR1   754
    X58       CONSTR2   25
    X58       CONSTR3   357
    X58       CONSTR4   326
    X58       CONSTR5   821
    X58       CONSTR6   674
    X58       CONSTR7   983
    X58       CONSTR8   440
    X58       CONSTR9   618
    X58       CONSTR10  127
    X59       OBJ       947
    X59       CONSTR1   883
    X59       CONSTR2   687
    X59       CONSTR3   842
    X59       CONSTR4   215
    X59       CONSTR5   158
    X59       CONSTR6   621
    X59       CONSTR7   787
    X59       CONSTR8   921
    X59       CONSTR9   865
    X59       CONSTR10  42
    X60       OBJ       576
    X60       CONSTR1   353
    X60       CONSTR2   311
    X60       CONSTR3   281
    X60       CONSTR4   717
    X60       CONSTR5   658
    X60       CONSTR6   617
    X60       CONSTR7   596
    X60       CONSTR8   439
    X60       CONSTR9   801
    X60       CONSTR10  170
    X61       OBJ       1115
    X61       CONSTR1   837
    X61       CONSTR2   659
    X61       CONSTR3   214
    X61       CONSTR4   440
    X61       CONSTR5   645
    X61       CONSTR6   543
    X61       CONSTR7   286
    X61       CONSTR8   1000
    X61       CONSTR9   782
    X61       CONSTR10  794
    X62       OBJ       1054
    X62       CONSTR1   780
    X62       CONSTR2   421
    X62       CONSTR3   885
    X62       CONSTR4   835
    X62       CONSTR5   990
    X62       CONSTR6   876
    X62       CONSTR7   794
    X62       CONSTR8   232
    X62       CONSTR9   585
    X62       CONSTR10  581
    X63       OBJ       917
    X63       CONSTR1   641
    X63       CONSTR2   630
    X63       CONSTR3   337
    X63       CONSTR4   414
    X63       CONSTR5   625
    X63       CONSTR6   434
    X63       CONSTR7   444
    X63       CONSTR8   9
    X63       CONSTR9   375
    X63       CONSTR10  360
    X64       OBJ       809
    X64       CONSTR1   224
    X64       CONSTR2   251
    X64       CONSTR3   753
    X64       CONSTR4   7
    X64       CONSTR5   700
    X64       CONSTR6   673
    X64       CONSTR7   807
    X64       CONSTR8   340
    X64       CONSTR9   37
    X64       CONSTR10  834
    X65       OBJ       552
    X65       CONSTR1   485
    X65       CONSTR2   815
    X65       CONSTR3   654
    X65       CONSTR4   197
    X65       CONSTR5   2
    X65       CONSTR6   500
    X65       CONSTR7   807
    X65       CONSTR8   721
    X65       CONSTR9   484
    X65       CONSTR10  713
    X66       OBJ       703
    X66       CONSTR1   155
    X66       CONSTR2   512
    X66       CONSTR3   829
    X66       CONSTR4   652
    X66       CONSTR5   555
    X66       CONSTR6   893
    X66       CONSTR7   423
    X66       CONSTR8   186
    X66       CONSTR9   236
    X66       CONSTR10  565
    X67       OBJ       838
    X67       CONSTR1   202
    X67       CONSTR2   541
    X67       CONSTR3   211
    X67       CONSTR4   590
    X67       CONSTR5   347
    X67       CONSTR6   341
    X67       CONSTR7   331
    X67       CONSTR8   640
    X67       CONSTR9   485
    X67       CONSTR10  175
    X68       OBJ       939
    X68       CONSTR1   196
    X68       CONSTR2   346
    X68       CONSTR3   777
    X68       CONSTR4   819
    X68       CONSTR5   993
    X68       CONSTR6   962
    X68       CONSTR7   425
    X68       CONSTR8   440
    X68       CONSTR9   175
    X68       CONSTR10  732
    X69       OBJ       660
    X69       CONSTR1   219
    X69       CONSTR2   395
    X69       CONSTR3   630
    X69       CONSTR4   848
    X69       CONSTR5   568
    X69       CONSTR6   296
    X69       CONSTR7   914
    X69       CONSTR8   646
    X69       CONSTR9   996
    X69       CONSTR10  714
    X70       OBJ       587
    X70       CONSTR1   905
    X70       CONSTR2   747
    X70       CONSTR3   149
    X70       CONSTR4   741
    X70       CONSTR5   448
    X70       CONSTR6   261
    X70       CONSTR7   513
    X70       CONSTR8   121
    X70       CONSTR9   530
    X70       CONSTR10  488
    X71       OBJ       663
    X71       CONSTR1   235
    X71       CONSTR2   221
    X71       CONSTR3   243
    X71       CONSTR4   728
    X71       CONSTR5   165
    X71       CONSTR6   758
    X71       CONSTR7   557
    X71       CONSTR8   953
    X71       CONSTR9   102
    X71       CONSTR10  635
    X72       OBJ       857
    X72       CONSTR1   635
    X72       CONSTR2   520
    X72       CONSTR3   319
    X72       CONSTR4   69
    X72       CONSTR5   959
    X72       CONSTR6   30
    X72       CONSTR7   796
    X72       CONSTR8   965
    X72       CONSTR9   92
    X72       CONSTR10  379
    X73       OBJ       573
    X73       CONSTR1   733
    X73       CONSTR2   695
    X73       CONSTR3   83
    X73       CONSTR4   844
    X73       CONSTR5   738
    X73       CONSTR6   887
    X73       CONSTR7   631
    X73       CONSTR8   90
    X73       CONSTR9   402
    X73       CONSTR10  596
    X74       OBJ       714
    X74       CONSTR1   701
    X74       CONSTR2   914
    X74       CONSTR3   552
    X74       CONSTR4   261
    X74       CONSTR5   379
    X74       CONSTR6   167
    X74       CONSTR7   563
    X74       CONSTR8   300
    X74       CONSTR9   577
    X74       CONSTR10  512
    X75       OBJ       684
    X75       CONSTR1   300
    X75       CONSTR2   272
    X75       CONSTR3   816
    X75       CONSTR4   266
    X75       CONSTR5   98
    X75       CONSTR6   647
    X75       CONSTR7   949
    X75       CONSTR8   767
    X75       CONSTR9   705
    X75       CONSTR10  368
    X76       OBJ       781
    X76       CONSTR1   997
    X76       CONSTR2   135
    X76       CONSTR3   620
    X76       CONSTR4   446
    X76       CONSTR5   950
    X76       CONSTR6   272
    X76       CONSTR7   33
    X76       CONSTR8   227
    X76       CONSTR9   883
    X76       CONSTR10  752
    X77       OBJ       847
    X77       CONSTR1   65
    X77       CONSTR2   777
    X77       CONSTR3   366
    X77       CONSTR4   246
    X77       CONSTR5   320
    X77       CONSTR6   328
    X77       CONSTR7   426
    X77       CONSTR8   856
    X77       CONSTR9   739
    X77       CONSTR10  354
    X78       OBJ       997
    X78       CONSTR1   769
    X78       CONSTR2   509
    X78       CONSTR3   379
    X78       CONSTR4   418
    X78       CONSTR5   837
    X78       CONSTR6   524
    X78       CONSTR7   402
    X78       CONSTR8   398
    X78       CONSTR9   746
    X78       CONSTR10  860
    X79       OBJ       582
    X79       CONSTR1   630
    X79       CONSTR2   803
    X79       CONSTR3   190
    X79       CONSTR4   807
    X79       CONSTR5   924
    X79       CONSTR6   464
    X79       CONSTR7   162
    X79       CONSTR8   341
    X79       CONSTR9   196
    X79       CONSTR10  674
    X80       OBJ       813
    X80       CONSTR1   28
    X80       CONSTR2   111
    X80       CONSTR3   736
    X80       CONSTR4   878
    X80       CONSTR5   237
    X80       CONSTR6   421
    X80       CONSTR7   600
    X80       CONSTR8   824
    X80       CONSTR9   10
    X80       CONSTR10  542
    X81       OBJ       885
    X81       CONSTR1   75
    X81       CONSTR2   399
    X81       CONSTR3   931
    X81       CONSTR4   654
    X81       CONSTR5   1
    X81       CONSTR6   662
    X81       CONSTR7   228
    X81       CONSTR8   379
    X81       CONSTR9   504
    X81       CONSTR10  488
    X82       OBJ       733
    X82       CONSTR1   69
    X82       CONSTR2   633
    X82       CONSTR3   112
    X82       CONSTR4   921
    X82       CONSTR5   667
    X82       CONSTR6   454
    X82       CONSTR7   279
    X82       CONSTR8   366
    X82       CONSTR9   776
    X82       CONSTR10  741
    X83       OBJ       733
    X83       CONSTR1   457
    X83       CONSTR2   48
    X83       CONSTR3   685
    X83       CONSTR4   366
    X83       CONSTR5   442
    X83       CONSTR6   543
    X83       CONSTR7   366
    X83       CONSTR8   496
    X83       CONSTR9   78
    X83       CONSTR10  970
    X84       OBJ       650
    X84       CONSTR1   213
    X84       CONSTR2   661
    X84       CONSTR3   792
    X84       CONSTR4   578
    X84       CONSTR5   681
    X84       CONSTR6   963
    X84       CONSTR7   370
    X84       CONSTR8   849
    X84       CONSTR9   357
    X84       CONSTR10  163
    X85       OBJ       583
    X85       CONSTR1   590
    X85       CONSTR2   51
    X85       CONSTR3   713
    X85       CONSTR4   681
    X85       CONSTR5   835
    X85       CONSTR6   901
    X85       CONSTR7   419
    X85       CONSTR8   801
    X85       CONSTR9   570
    X85       CONSTR10  239
    X86       OBJ       936
    X86       CONSTR1   945
    X86       CONSTR2   670
    X86       CONSTR3   444
    X86       CONSTR4   520
    X86       CONSTR5   854
    X86       CONSTR6   948
    X86       CONSTR7   493
    X86       CONSTR8   975
    X86       CONSTR9   165
    X86       CONSTR10  442
    X87       OBJ       787
    X87       CONSTR1   144
    X87       CONSTR2   181
    X87       CONSTR3   516
    X87       CONSTR4   635
    X87       CONSTR5   430
    X87       CONSTR6   717
    X87       CONSTR7   340
    X87       CONSTR8   269
    X87       CONSTR9   343
    X87       CONSTR10  388
    X88       OBJ       762
    X88       CONSTR1   716
    X88       CONSTR2   340
    X88       CONSTR3   80
    X88       CONSTR4   36
    X88       CONSTR5   964
    X88       CONSTR6   666
    X88       CONSTR7   356
    X88       CONSTR8   335
    X88       CONSTR9   965
    X88       CONSTR10  846
    X89       OBJ       517
    X89       CONSTR1   164
    X89       CONSTR2   545
    X89       CONSTR3   474
    X89       CONSTR4   516
    X89       CONSTR5   172
    X89       CONSTR6   148
    X89       CONSTR7   470
    X89       CONSTR8   572
    X89       CONSTR9   986
    X89       CONSTR10  705
    X90       OBJ       721
    X90       CONSTR1   396
    X90       CONSTR2   678
    X90       CONSTR3   314
    X90       CONSTR4   20
    X90       CONSTR5   836
    X90       CONSTR6   32
    X90       CONSTR7   359
    X90       CONSTR8   653
    X90       CONSTR9   747
    X90       CONSTR10  131
    X91       OBJ       718
    X91       CONSTR1   158
    X91       CONSTR2   414
    X91       CONSTR3   515
    X91       CONSTR4   608
    X91       CONSTR5   976
    X91       CONSTR6   296
    X91       CONSTR7   287
    X91       CONSTR8   610
    X91       CONSTR9   72
    X91       CONSTR10  233
    X92       OBJ       802
    X92       CONSTR1   449
    X92       CONSTR2   117
    X92       CONSTR3   990
    X92       CONSTR4   845
    X92       CONSTR5   599
    X92       CONSTR6   140
    X92       CONSTR7   789
    X92       CONSTR8   906
    X92       CONSTR9   90
    X92       CONSTR10  832
    X93       OBJ       853
    X93       CONSTR1   653
    X93       CONSTR2   857
    X93       CONSTR3   887
    X93       CONSTR4   104
    X93       CONSTR5   310
    X93       CONSTR6   271
    X93       CONSTR7   603
    X93       CONSTR8   495
    X93       CONSTR9   846
    X93       CONSTR10  875
    X94       OBJ       1022
    X94       CONSTR1   912
    X94       CONSTR2   683
    X94       CONSTR3   454
    X94       CONSTR4   9
    X94       CONSTR5   669
    X94       CONSTR6   769
    X94       CONSTR7   655
    X94       CONSTR8   36
    X94       CONSTR9   666
    X94       CONSTR10  783
    X95       OBJ       609
    X95       CONSTR1   828
    X95       CONSTR2   363
    X95       CONSTR3   587
    X95       CONSTR4   841
    X95       CONSTR5   733
    X95       CONSTR6   52
    X95       CONSTR7   266
    X95       CONSTR8   525
    X95       CONSTR9   481
    X95       CONSTR10  911
    X96       OBJ       627
    X96       CONSTR1   892
    X96       CONSTR2   24
    X96       CONSTR3   203
    X96       CONSTR4   266
    X96       CONSTR5   8
    X96       CONSTR6   542
    X96       CONSTR7   506
    X96       CONSTR8   607
    X96       CONSTR9   968
    X96       CONSTR10  149
    X97       OBJ       687
    X97       CONSTR1   313
    X97       CONSTR2   893
    X97       CONSTR3   603
    X97       CONSTR4   408
    X97       CONSTR5   804
    X97       CONSTR6   466
    X97       CONSTR7   869
    X97       CONSTR8   904
    X97       CONSTR9   434
    X97       CONSTR10  469
    X98       OBJ       637
    X98       CONSTR1   193
    X98       CONSTR2   374
    X98       CONSTR3   698
    X98       CONSTR4   877
    X98       CONSTR5   677
    X98       CONSTR6   169
    X98       CONSTR7   365
    X98       CONSTR8   537
    X98       CONSTR9   319
    X98       CONSTR10  462
    X99       OBJ       853
    X99       CONSTR1   874
    X99       CONSTR2   681
    X99       CONSTR3   423
    X99       CONSTR4   978
    X99       CONSTR5   365
    X99       CONSTR6   2
    X99       CONSTR7   580
    X99       CONSTR8   798
    X99       CONSTR9   775
    X99       CONSTR10  609
    X100      OBJ       954
    X100      CONSTR1   289
    X100      CONSTR2   928
    X100      CONSTR3   738
    X100      CONSTR4   289
    X100      CONSTR5   858
    X100      CONSTR6   107
    X100      CONSTR7   501
    X100      CONSTR8   273
    X100      CONSTR9   315
    X100      CONSTR10  264
    INT0001   'MARKER'  'INTEND'
RHS
    RHS10001  CONSTR1   25686
    RHS10001  CONSTR2   23714
    RHS10001  CONSTR3   24477
    RHS10001  CONSTR4   26968
    RHS10001  CONSTR5   27804
    RHS10001  CONSTR6   23998
    RHS10001  CONSTR7   25473
    RHS10001  CONSTR8   24026
    RHS10001  CONSTR9   22659
    RHS10001  CONSTR10  24437
BOUNDS
 BV BND       X1        .00
 BV BND       X2        .00
 BV BND       X3        .00
 BV BND       X4        .00
 BV BND       X5        .00
 BV BND       X6        .00
 BV BND       X7        .00
 BV BND       X8        .00
 BV BND       X9        .00
 BV BND       X10       .00
 BV BND       X11       .00
 BV BND       X12       .00
 BV BND       X13       .00
 BV BND       X14       .00
 BV BND       X15       .00
 BV BND       X16       .00
 BV BND       X17       .00
 BV BND       X18       .00
 BV BND       X19       .00
 BV BND       X20       .00
 BV BND       X21       .00
 BV BND       X22       .00
 BV BND       X23       .00
 BV BND       X24       .00
 BV BND       X25       .00
 BV BND       X26       .00
 BV BND       X27       .00
 BV BND       X28       .00
 BV BND       X29       .00
 BV BND       X30       .00
 BV BND       X31       .00
 BV BND       X32       .00
 BV BND       X33       .00
 BV BND       X34       .00
 BV BND       X35       .00
 BV BND       X36       .00
 BV BND       X37       .00
 BV BND       X38       .00
 BV BND       X39       .00
 BV BND       X40       .00
 BV BND       X41       .00
 BV BND       X42       .00
 BV BND       X43       .00
 BV BND       X44       .00
 BV BND       X45       .00
 BV BND       X46       .00
 BV BND       X47       .00
 BV BND       X48       .00
 BV BND       X49       .00
 BV BND       X50       .00
 BV BND       X51       .00
 BV BND       X52       .00
 BV BND       X53       .00
 BV BND       X54       .00
 BV BND       X55       .00
 BV BND       X56       .00
 BV BND       X57       .00
 BV BND       X58       .00
 BV BND       X59       .00
 BV BND       X60       .00
 BV BND       X61       .00
 BV BND       X62       .00
 BV BND       X63       .00
 BV BND       X64       .00
 BV BND       X65       .00
 BV BND       X66       .00
 BV BND       X67       .00
 BV BND       X68       .00
 BV BND       X69       .00
 BV BND       X70       .00
 BV BND       X71       .00
 BV BND       X72       .00
 BV BND       X73       .00
 BV BND       X74       .00
 BV BND       X75       .00
 BV BND       X76       .00
 BV BND       X77       .00
 BV BND       X78       .00
 BV BND       X79       .00
 BV BND       X80       .00
 BV BND       X81       .00
 BV BND       X82       .00
 BV BND       X83       .00
 BV BND       X84       .00
 BV BND       X85       .00
 BV BND       X86       .00
 BV BND       X87       .00
 BV BND       X88       .00
 BV BND       X89       .00
 BV BND       X90       .00
 BV BND       X91       .00
 BV BND       X92       .00
 BV BND       X93       .00
 BV BND       X94       .00
 BV BND       X95       .00
 BV BND       X96       .00
 BV BND       X97       .00
 BV BND       X98       .00
 BV BND       X99       .00
 BV BND       X100      .00
ENDATA
